NAME : XML100_3315_21
DIMENSION : 101
NB_CLUSTERS : 25
CLUSTERING_ALG : DBSCAN
CLUSTERING_PARAMS : eps(62), minSamples(3)
CLUSTERS
1 0
2 1 4 6 16 18 20 23 24 29 39 48 50 52 75 78 92
3 2 12 47 51 74 88
4 5 13 15 21 25 38 43 49 57 97 100
5 22 34 41 67 83 94
6 26 44 84 89
7 30 46 59 80 82 98
8 55 64 68 69 85 90
9 10 66 73 81 86
10 32 33 65 72 95
11 11 70
12 7 37 42 93
13 27 58
14 77 91 96
15 19 54
16 28 40
17 35 87
18 45 99
19 56 60
20 31 79
21 3 8 9 71
22 36 76
23 61 62
24 14 53
25 17 63
EOF